nNurses = 196;
nHours = 28;
minHours = 6;
maxHours = 9;
maxConsec = 6;
maxPresence = 21;
demand = [10, 6, 7, 9, 11, 7, 7, 10, 9, 14, 19, 23, 26, 23, 25, 30, 32, 31, 29, 33, 30, 29, 26, 26, 21, 24, 21, 24];
